n_res = 4;
rc = [ 41, 39, 27, 30 ];
n_tasks = 30;
d = [ 9, 7, 8, 6, 4, 2, 2, 4, 8, 6, 5, 2, 6, 1, 2, 5, 3, 6, 10, 9, 5, 9, 7, 10, 4, 7, 9, 3, 6, 4 ];
rr = [| 41, 41, 41, 41, 41, 41, 41, 41, 41, 41, 41, 41, 41, 41, 41, 41, 41, 41, 41, 41, 41, 41, 41, 41, 41, 41, 41, 41, 41, 41
      | 39, 39, 39, 39, 39, 39, 39, 39, 39, 39, 39, 39, 39, 39, 39, 39, 39, 39, 39, 39, 39, 39, 39, 39, 39, 39, 39, 39, 39, 39
      | 27, 27, 27, 27, 27, 27, 27, 27, 27, 27, 27, 27, 27, 27, 27, 27, 27, 27, 27, 27, 27, 27, 27, 27, 27, 27, 27, 27, 27, 27
      | 30, 30, 30, 30, 30, 30, 30, 30, 30, 30, 30, 30, 30, 30, 30, 30, 30, 30, 30, 30, 30, 30, 30, 30, 30, 30, 30, 30, 30, 30|];
suc = [ { 5, 6, 16 },
       { 11, 14, 19 },
       { 4, 5 },
       { 25 },
       { 9, 12 },
       { 7, 28, 29 },
       { 8, 10, 21 },
       { 13 },
       { 14, 15, 17 },
       { 13, 23 },
       { 18, 20 },
       { 13, 18, 19 },
       { 22, 25 },
       { 18, 24, 26 },
       { 21 },
       { 20, 22 },
       { 21, 25, 27 },
       { 22, 23 },
       { 29 },
       { 24 },
       { 23, 26 },
       { 30 },
       { 30 },
       { 27, 28 },
       { 26 },
       { 30 },
       { 29 },
       {  },
       {  },
       {  } ];
